57672
0 26 4123
26 32 4053
32 41 4807
41 44 1302
44 10 436
10 24 545
24 30 299
30 51 1153
51 1 598
1 13 433
13 8 471
8 11 723
11 17 768
17 3 606
3 29 380
29 46 944
46 53 491
53 33 401
33 52 396
52 22 388
22 20 176
20 28 516
28 9 648
9 21 117
21 15 737
15 14 556
14 38 485
38 45 214
45 35 402
35 16 2360
16 47 415
47 48 761
48 25 560
25 54 397
54 27 487
27 5 404
5 2 385
2 42 1096
42 39 1279
39 6 1176
6 36 517
36 19 714
19 49 763
49 23 868
23 34 296
34 4 323
4 50 736
50 12 644
12 40 686
40 31 362
31 7 678
7 37 368
37 43 690
43 18 1282
18 0 12257
